(declare-const X String)
; Contact\d+Host\x3A[^\n\r]*User-Agent\x3AHost\x3aMailHost\x3aMSNLOGOVN
(assert (not (str.in_re X (re.++ (str.to_re "Contact") (re.+ (re.range "0" "9")) (str.to_re "Host:") (re.* (re.union (str.to_re "\u{a}") (str.to_re "\u{d}"))) (str.to_re "User-Agent:Host:MailHost:MSNLOGOVN\u{a}")))))
; /\?a=dw[a-z]$/U
(assert (not (str.in_re X (re.++ (str.to_re "/?a=dw") (re.range "a" "z") (str.to_re "/U\u{a}")))))
; /filename=[^\n]*\x2em4r/i
(assert (str.in_re X (re.++ (str.to_re "/filename=") (re.* (re.comp (str.to_re "\u{a}"))) (str.to_re ".m4r/i\u{a}"))))
(check-sat)
